generated by phonopy
   1.0
     9.3329999969514006    0.0000000000000000    0.0000000000000000
    -4.6664999984757003    8.0826150908799992    0.0000000000000000
     0.0000000000000000    0.0000000000000000    9.9559999999999995
Al N
  36   36
Direct
  0.1111111111111100  0.2222222222222190  0.4995255900000000
  0.4444444444444430  0.2222222222222190  0.4995255900000000
  0.7777777777777760  0.2222222222222190  0.4995255900000000
  0.1111111111111140  0.5555555555555610  0.4995255900000000
  0.4444444444444470  0.5555555555555610  0.4995255900000000
  0.7777777777777810  0.5555555555555610  0.4995255900000000
  0.1111111111111120  0.8888888888888899  0.4995255900000000
  0.4444444444444450  0.8888888888888899  0.4995255900000000
  0.7777777777777790  0.8888888888888899  0.4995255900000000
  0.1111111111111100  0.2222222222222190  0.9995255900000000
  0.4444444444444430  0.2222222222222190  0.9995255900000000
  0.7777777777777760  0.2222222222222190  0.9995255900000000
  0.1111111111111140  0.5555555555555610  0.9995255900000000
  0.4444444444444470  0.5555555555555610  0.9995255900000000
  0.7777777777777810  0.5555555555555610  0.9995255900000000
  0.1111111111111120  0.8888888888888899  0.9995255900000000
  0.4444444444444450  0.8888888888888899  0.9995255900000000
  0.7777777777777790  0.8888888888888899  0.9995255900000000
  0.2222222222222230  0.1111111111111120  0.2495255900000000
  0.5555555555555560  0.1111111111111120  0.2495255900000000
  0.8888888888888899  0.1111111111111120  0.2495255900000000
  0.2222222222222260  0.4444444444444510  0.2495255900000000
  0.5555555555555590  0.4444444444444510  0.2495255900000000
  0.8888888888888919  0.4444444444444510  0.2495255900000000
  0.2222222222222240  0.7777777777777810  0.2495255900000000
  0.5555555555555570  0.7777777777777810  0.2495255900000000
  0.8888888888888899  0.7777777777777810  0.2495255900000000
  0.2222222222222230  0.1111111111111120  0.7495255900000000
  0.5555555555555560  0.1111111111111120  0.7495255900000000
  0.8888888888888899  0.1111111111111120  0.7495255900000000
  0.2222222222222260  0.4444444444444510  0.7495255900000000
  0.5555555555555590  0.4444444444444510  0.7495255900000000
  0.8888888888888919  0.4444444444444510  0.7495255900000000
  0.2222222222222240  0.7777777777777810  0.7495255900000000
  0.5555555555555570  0.7777777777777810  0.7495255900000000
  0.8888888888888899  0.7777777777777810  0.7495255900000000
  0.1111111111111100  0.2222222222222190  0.1904744100000000
  0.4444444444444430  0.2222222222222190  0.1904744100000000
  0.7777777777777760  0.2222222222222190  0.1904744100000000
  0.1111111111111140  0.5555555555555610  0.1904744100000000
  0.4444444444444470  0.5555555555555610  0.1904744100000000
  0.7777777777777810  0.5555555555555610  0.1904744100000000
  0.1111111111111120  0.8888888888888899  0.1904744100000000
  0.4444444444444450  0.8888888888888899  0.1904744100000000
  0.7777777777777790  0.8888888888888899  0.1904744100000000
  0.1111111111111100  0.2222222222222190  0.6904744100000000
  0.4444444444444430  0.2222222222222190  0.6904744100000000
  0.7777777777777760  0.2222222222222190  0.6904744100000000
  0.1111111111111140  0.5555555555555610  0.6904744100000000
  0.4444444444444470  0.5555555555555610  0.6904744100000000
  0.7777777777777810  0.5555555555555610  0.6904744100000000
  0.1111111111111120  0.8888888888888899  0.6904744100000000
  0.4444444444444450  0.8888888888888899  0.6904744100000000
  0.7777777777777790  0.8888888888888899  0.6904744100000000
  0.2222222222222230  0.1111111111111120  0.4404744100000000
  0.5555555555555560  0.1111111111111120  0.4404744100000000
  0.8888888888888899  0.1111111111111120  0.4404744100000000
  0.2222222222222260  0.4444444444444510  0.4404744100000000
  0.5555555555555590  0.4444444444444510  0.4404744100000000
  0.8888888888888919  0.4444444444444510  0.4404744100000000
  0.2222222222222240  0.7777777777777810  0.4404744100000000
  0.5555555555555570  0.7777777777777810  0.4404744100000000
  0.8888888888888899  0.7777777777777810  0.4404744100000000
  0.2222222222222230  0.1111111111111120  0.9404744100000000
  0.5555555555555560  0.1111111111111120  0.9404744100000000
  0.8888888888888899  0.1111111111111120  0.9404744100000000
  0.2222222222222260  0.4444444444444510  0.9404744100000000
  0.5555555555555590  0.4444444444444510  0.9404744100000000
  0.8888888888888919  0.4444444444444510  0.9404744100000000
  0.2222222222222240  0.7777777777777810  0.9404744100000000
  0.5555555555555570  0.7777777777777810  0.9404744100000000
  0.8888888888888899  0.7777777777777810  0.9404744100000000
